Maximize
  0 x0 - 12 x1 + 0 x2 + 0 x3 - 42 x4 + 0 x5 + 0 x6 + 0 x7 + 0 x8 + 0 x9
   + 0 x10 + 34 x11 + 39 x12 + 0 x13 + 0 x14 + 0 x15 + 0 x16 + 0 x17
   + 7 x18 + 4 x19 + 0 x20 + 0 x21 - 15 x22 - 31 x23 + 0 x24 + 0 x25
   + 0 x26 + 0 x27 + 0 x28 - 36 x29 + 3 x30 + 11 x31 + 0 x32 + 0 x33
   - 34 x34 + 0 x35 + 0 x36 + 0 x37 + 0 x38 + 0 x39 + [ - 34 x0 * x2
   + 84 x0 * x5 - 90 x0 * x7 + 92 x0 * x9 + 46 x0 * x13 + 68 x0 * x14
   + 90 x0 * x15 + 94 x0 * x18 - 94 x0 * x19 + 96 x0 * x21 - 16 x0 * x23
   + 58 x0 * x24 + 50 x0 * x27 - 82 x0 * x28 - 2 x0 * x30 - 90 x0 * x37
   + 84 x0 * x38 + 18 x0 * x39 - 20 x1 ^2 + 44 x1 * x2 - 8 x1 * x5
   - 64 x1 * x11 + 78 x1 * x13 + 32 x1 * x14 + 60 x1 * x19 - 42 x1 * x20
   + 10 x1 * x21 - 84 x1 * x24 - 14 x1 * x26 + 40 x1 * x27 + 92 x1 * x29
   - 48 x1 * x34 + 40 x1 * x36 + 80 x1 * x38 + 32 x1 * x39 + 80 x2 * x6
   - 62 x2 * x7 - 32 x2 * x8 - 66 x2 * x10 + 34 x2 * x15 + 72 x2 * x16
   - 2 x2 * x17 - 18 x2 * x19 + 20 x2 * x20 + 8 x2 * x21 + 34 x2 * x27
   - 12 x2 * x28 - 24 x2 * x36 + 72 x3 * x4 - 74 x3 * x6 + 96 x3 * x8
   - 86 x3 * x10 + 12 x3 * x12 + 82 x3 * x14 + 84 x3 * x24 + 22 x3 * x26
   - 90 x3 * x29 - 82 x3 * x30 + 20 x3 * x31 - 72 x3 * x35 - 86 x3 * x38
   + 60 x3 * x39 - 4 x4 * x5 + 26 x4 * x6 - 8 x4 * x7 - 32 x4 * x9
   + 78 x4 * x14 + 22 x4 * x19 + 66 x4 * x20 - 92 x4 * x21 - 58 x4 * x22
   - 96 x4 * x23 + 30 x4 * x24 + 38 x4 * x26 - 56 x4 * x27 - 52 x4 * x28
   + 86 x4 * x29 - 22 x4 * x30 - 98 x4 * x31 - 54 x4 * x33 + 96 x4 * x34
   + 58 x4 * x38 - 8 x4 * x39 + 6 x5 * x6 + 68 x5 * x7 - 72 x5 * x11
   - 40 x5 * x12 - 42 x5 * x13 - 70 x5 * x15 + 60 x5 * x17 - 14 x5 * x18
   - 58 x5 * x19 - 48 x5 * x20 - 6 x5 * x22 - 88 x5 * x24 + 78 x5 * x26
   - 76 x5 * x29 + 20 x5 * x31 + 74 x5 * x37 + 64 x6 * x7 - 18 x6 * x8
   + 34 x6 * x9 - 62 x6 * x12 - 70 x6 * x13 - 44 x6 * x16 + 12 x6 * x20
   + 36 x6 * x21 + 70 x6 * x24 + 92 x6 * x33 + 58 x6 * x38 - 49 x7 ^2
   - 4 x7 * x8 + 4 x7 * x9 + 56 x7 * x11 - 8 x7 * x12 + 42 x7 * x13
   + 12 x7 * x14 - 4 x7 * x18 + 36 x7 * x24 - 38 x7 * x25 + 10 x7 * x29
   - 90 x7 * x30 + 98 x7 * x31 - 82 x7 * x32 + 34 x7 * x33 - 66 x7 * x34
   - 6 x7 * x37 - 60 x8 * x10 + 86 x8 * x14 - 70 x8 * x15 - 6 x8 * x16
   - 90 x8 * x17 + 78 x8 * x18 + 90 x8 * x19 - 16 x8 * x21 + 40 x8 * x25
   + 86 x8 * x26 + 36 x8 * x27 + 50 x8 * x39 + 4 x9 * x11 - 46 x9 * x12
   + 88 x9 * x13 - 88 x9 * x14 + 14 x9 * x19 + 40 x9 * x21 + 84 x9 * x23
   - 16 x9 * x24 + 86 x9 * x26 - 44 x9 * x28 + 88 x9 * x29 - 70 x9 * x30
   + 58 x9 * x32 + 72 x9 * x34 + 54 x9 * x36 - 72 x9 * x37 - 68 x9 * x38
   + 42 x10 * x12 - 70 x10 * x14 + 30 x10 * x16 + 44 x10 * x17
   - 10 x10 * x19 - 16 x10 * x22 + 62 x10 * x23 + 26 x10 * x28
   - 28 x10 * x32 + 66 x10 * x33 + 42 x10 * x35 + 92 x10 * x38
   - 34 x10 * x39 - 44 x11 * x15 + 56 x11 * x21 - 36 x11 * x24
   + 68 x11 * x25 - 38 x11 * x26 - 40 x11 * x28 + 64 x11 * x32
   + 58 x11 * x33 - 58 x11 * x36 - 88 x11 * x39 - 38 x12 * x13
   - 70 x12 * x14 - 34 x12 * x19 + 28 x12 * x20 + 28 x12 * x29
   + 6 x12 * x33 - 72 x12 * x34 + 68 x12 * x36 - 86 x12 * x37
   - 84 x12 * x39 + 45 x13 ^2 + 24 x13 * x14 - 32 x13 * x20 + 14 x13 * x26
   - 52 x13 * x29 - 84 x13 * x31 + 98 x14 * x15 - 10 x14 * x16
   - 26 x14 * x19 + 36 x14 * x21 - 90 x14 * x25 + 76 x14 * x26
   - 70 x14 * x29 - 42 x14 * x31 + 22 x14 * x32 + 38 x14 * x33
   - 88 x14 * x39 + 48 x15 ^2 + 18 x15 * x16 + 26 x15 * x17 - 56 x15 * x18
   - 16 x15 * x20 - 78 x15 * x24 - 76 x15 * x25 + 80 x15 * x31
   + 46 x15 * x32 - 76 x15 * x35 - 92 x15 * x38 - 17 x16 ^2 - 66 x16 * x20
   + 18 x16 * x21 - 10 x16 * x22 + 20 x16 * x25 + 20 x16 * x28
   - 58 x16 * x31 - 94 x16 * x32 - 36 x16 * x33 + 4 x16 * x34
   - 28 x16 * x36 - 64 x16 * x39 - 33 x17 ^2 - 98 x17 * x19 - 6 x17 * x22
   + 22 x17 * x23 + 88 x17 * x27 - 12 x17 * x29 + 4 x17 * x31
   - 66 x17 * x36 - 48 x18 * x19 - 48 x18 * x22 + 96 x18 * x30
   - 38 x18 * x32 - 70 x18 * x38 - 11 x19 ^2 - 66 x19 * x20 - 86 x19 * x23
   - 52 x19 * x26 + 88 x19 * x29 + 48 x20 * x26 - 10 x20 * x31
   - 44 x20 * x33 - 36 x20 * x34 + 38 x20 * x37 + 82 x20 * x38
   - 46 x21 * x25 - 84 x21 * x30 + 94 x21 * x31 + 50 x21 * x32
   - 58 x21 * x33 - 30 x21 * x35 - 76 x21 * x36 + 96 x22 * x25
   - 36 x22 * x29 - 64 x22 * x30 - 80 x22 * x36 + 30 x23 * x27
   - 16 x23 * x29 + 84 x23 * x31 - 80 x23 * x36 + 88 x23 * x39 - 40 x24 ^2
   + 46 x24 * x27 + 38 x24 * x32 - 54 x24 * x33 - 24 x24 * x37
   - 74 x25 * x35 + 36 x25 * x38 + 44 x25 * x39 + 6 x26 * x27
   - 82 x26 * x32 + 32 x26 * x36 + 14 x27 ^2 + 70 x27 * x30 + 82 x27 * x31
   - 44 x27 * x32 + 12 x27 * x35 + 10 x28 ^2 - 82 x28 * x29 + 34 x28 * x30
   - 68 x28 * x31 - 28 x28 * x37 + 88 x28 * x39 + 39 x29 ^2 + 98 x29 * x34
   + 36 x29 * x36 + 86 x29 * x39 - 10 x30 ^2 - 62 x30 * x31 + 72 x30 * x32
   + 88 x30 * x33 + 64 x30 * x37 + 86 x30 * x38 - 14 x31 * x34
   - 10 x31 * x35 - 6 x31 * x36 - 88 x31 * x38 - 26 x31 * x39
   + 78 x32 * x37 - 42 x33 * x34 - 36 x33 * x35 + 80 x33 * x36
   + 2 x33 * x37 + 2 x33 * x38 + 28 x33 * x39 + 76 x34 * x38 - 64 x35 * x36
   + 50 x35 * x38 + 2 x36 * x38 + 40 x36 * x39 + 28 x37 ^2 + 13 x38 ^2
   - 64 x38 * x39 ] / 2 
Subject To
Bounds
 x0 <= 1
 x1 <= 1
 x2 <= 1
 x3 <= 1
 x4 <= 1
 x5 <= 1
 x6 <= 1
 x7 <= 1
 x8 <= 1
 x9 <= 1
 x10 <= 1
 x11 <= 1
 x12 <= 1
 x13 <= 1
 x14 <= 1
 x15 <= 1
 x16 <= 1
 x17 <= 1
 x18 <= 1
 x19 <= 1
 x20 <= 1
 x21 <= 1
 x22 <= 1
 x23 <= 1
 x24 <= 1
 x25 <= 1
 x26 <= 1
 x27 <= 1
 x28 <= 1
 x29 <= 1
 x30 <= 1
 x31 <= 1
 x32 <= 1
 x33 <= 1
 x34 <= 1
 x35 <= 1
 x36 <= 1
 x37 <= 1
 x38 <= 1
 x39 <= 1
End
